Route #1: 13 8 23 25 2 57 39 42 
Route #2: 52 43 49 7 
Route #3: 9 19 24 5 36 12 10 
Route #4: 20 63 58 6 53 45 44 
Route #5: 37 47 29 11 28 16 18 
Route #6: 56 61 33 35 48 15 50 
Route #7: 31 21 38 27 17 30 1 
Route #8: 41 46 26 62 40 34 54 
Route #9: 3 32 22 14 59 4 55 51 60 
cost 1107.52
execution_time 51.481
